mixintcount/benchmarks/random_v2l/5_5_7943.smt2
(set-logic QF_LIA)
(set-info :ran/ran2.smt2)
(set-info :smt-lib-version 2.0)
(declare-fun x1 () Int)
(declare-fun x2 () Int)
(declare-fun x3 () Int)
(declare-fun x4 () Int)
(declare-fun x5 () Int)
(assert (<= (+ (* (- 9) x1) (* 4 x2) (* 10 x3) (* (- 2) x4) (* 4 x5) ) (- 285)))
(assert (<= (+ (* 9 x1) (* (- 4) x2) (* 3 x3) (* 3 x4) (* (- 9) x5) ) (- 5099)))
(assert (<= (+ (* 2 x1) (* 0 x2) (* 10 x3) (* 1 x4) (* 6 x5) ) (- 7710)))
(assert (<= (+ (* 7 x1) (* (- 4) x2) (* 6 x3) (* (- 10) x4) (* 0 x5) ) 4110))
(assert (<= (+ (* 5 x1) (* (- 10) x2) (* 10 x3) (* 6 x4) (* (- 5) x5) ) (- 5012)))
(assert (<= (+ (* 0 x1) (* (- 6) x2) (* (- 6) x3) (* (- 3) x4) (* 3 x5) ) 5708))
(assert (<= (+ (* (- 2) x1) (* 1 x2) (* (- 9) x3) (* (- 10) x4) (* (- 7) x5) ) (- 4229)))
(assert (<= (+ (* (- 9) x1) (* 3 x2) (* 2 x3) (* 9 x4) (* (- 6) x5) ) 5372))
(assert (<= (+ (* 0 x1) (* (- 10) x2) (* 2 x3) (* (- 5) x4) (* 9 x5) ) 1919))
(assert (<= (+ (* (- 4) x1) (* 3 x2) (* 8 x3) (* (- 5) x4) (* (- 4) x5) ) 1969))
(assert (<= (+ (* 1 x1) (* 0 x2) (* 0 x3) (* 0 x4) (* 0 x5) ) 7943))
(assert (<= (+ (* (- 1) x1) (* 0 x2) (* 0 x3) (* 0 x4) (* 0 x5) ) 7943))
(assert (<= (+ (* 0 x1) (* 1 x2) (* 0 x3) (* 0 x4) (* 0 x5) ) 7943))
(assert (<= (+ (* 0 x1) (* (- 1) x2) (* 0 x3) (* 0 x4) (* 0 x5) ) 7943))
(assert (<= (+ (* 0 x1) (* 0 x2) (* 1 x3) (* 0 x4) (* 0 x5) ) 7943))
(assert (<= (+ (* 0 x1) (* 0 x2) (* (- 1) x3) (* 0 x4) (* 0 x5) ) 7943))
(assert (<= (+ (* 0 x1) (* 0 x2) (* 0 x3) (* 1 x4) (* 0 x5) ) 7943))
(assert (<= (+ (* 0 x1) (* 0 x2) (* 0 x3) (* (- 1) x4) (* 0 x5) ) 7943))
(assert (<= (+ (* 0 x1) (* 0 x2) (* 0 x3) (* 0 x4) (* 1 x5) ) 7943))
(assert (<= (+ (* 0 x1) (* 0 x2) (* 0 x3) (* 0 x4) (* (- 1) x5) ) 7943))
