mixintcount/benchmarks/random_v2l/5_5_7943.in
20 7
#	x1	x2	x3	x4	x5;		0 = Real; 1 = Integer
	1	1	1	1	1
1	-9	4	10	-2	4	-285
1	9	-4	3	3	-9	-5099
1	2	0	10	1	6	-7710
1	7	-4	6	-10	0	4110
1	5	-10	10	6	-5	-5012
1	0	-6	-6	-3	3	5708
1	-2	1	-9	-10	-7	-4229
1	-9	3	2	9	-6	5372
1	0	-10	2	-5	9	1919
1	-4	3	8	-5	-4	1969
1	1	0	0	0	0	7943
1	-1	0	0	0	0	7943
1	0	1	0	0	0	7943
1	0	-1	0	0	0	7943
1	0	0	1	0	0	7943
1	0	0	-1	0	0	7943
1	0	0	0	1	0	7943
1	0	0	0	-1	0	7943
1	0	0	0	0	1	7943
1	0	0	0	0	-1	7943
